(set-info :smt-lib-version 2.6)
(set-logic QF_LIA)
(set-info :category "industrial")
(set-info :status sat)
(declare-fun x0 () Int)
(declare-fun x1 () Int)
(declare-fun x10 () Int)
(declare-fun x11 () Int)
(declare-fun x12 () Int)
(declare-fun x13 () Int)
(declare-fun x14 () Int)
(declare-fun x15 () Int)
(declare-fun x16 () Int)
(declare-fun x17 () Int)
(declare-fun x18 () Int)
(declare-fun x19 () Int)
(declare-fun x2 () Int)
(declare-fun x20 () Int)
(declare-fun x21 () Int)
(declare-fun x22 () Int)
(declare-fun x23 () Int)
(declare-fun x24 () Int)
(declare-fun x25 () Int)
(declare-fun x26 () Int)
(declare-fun x27 () Int)
(declare-fun x28 () Int)
(declare-fun x29 () Int)
(declare-fun x3 () Int)
(declare-fun x30 () Int)
(declare-fun x31 () Int)
(declare-fun x32 () Int)
(declare-fun x33 () Int)
(declare-fun x34 () Int)
(declare-fun x35 () Int)
(declare-fun x36 () Int)
(declare-fun x37 () Int)
(declare-fun x38 () Int)
(declare-fun x39 () Int)
(declare-fun x4 () Int)
(declare-fun x5 () Int)
(declare-fun x6 () Int)
(declare-fun x7 () Int)
(declare-fun x8 () Int)
(declare-fun x9 () Int)
(assert (let ((?v_0 (* 0 x11)) (?v_5 (* 0 x16)) (?v_79 (* 1 x13)) (?v_2 (* 0 x23)) (?v_13 (* 1 x2)) (?v_20 (* 1 x22)) (?v_33 (* 1 x3)) (?v_49 (* 0 x35)) (?v_3 (* 0 x6)) (?v_67 (* 1 x26)) (?v_4 (* 1 x28)) (?v_15 (* 1 x7)) (?v_16 (* 0 x0)) (?v_27 (* 0 x10)) (?v_18 (* 1 x17)) (?v_63 (* 1 x18)) (?v_11 (* 0 x19)) (?v_22 (* 1 x21)) (?v_19 (* 0 x24)) (?v_12 (* 0 x25)) (?v_73 (* 0 x26)) (?v_43 (* 1 x37)) (?v_50 (* 0 x39)) (?v_14 (* 1 x27)) (?v_26 (* 0 x7)) (?v_59 (* 0 x9)) (?v_89 (* 1 x30)) (?v_25 (* 0 x5)) (?v_45 (* 1 x10)) (?v_46 (* 0 x12)) (?v_69 (* 1 x0)) (?v_31 (* 0 x18)) (?v_47 (* 0 x3)) (?v_23 (* 0 x28)) (?v_75 (* 1 x36)) (?v_34 (* 0 x38)) (?v_96 (* 1 x4)) (?v_60 (* 1 x8))) (let ((?v_77 (+ ?v_15 ?v_60)) (?v_108 (* 1 x11)) (?v_35 (* 0 x14)) (?v_39 (* 0 x27)) (?v_32 (* 0 x30)) (?v_55 (* 0 x32)) (?v_24 (* 1 x33)) (?v_122 (* 1 x9)) (?v_30 (* 0 x13)) (?v_53 (* 0 x22)) (?v_44 (* 0 x8)) (?v_70 (* 0 x20)) (?v_40 (* 0 x31)) (?v_42 (* 0 x36)) (?v_41 (* 1 x32)) (?v_90 (* 1 x39)) (?v_133 (* 2 x7)) (?v_61 (* 1 x12)) (?v_62 (* 0 x15)) (?v_65 (* 2 x24)) (?v_48 (* 0 x34)) (?v_51 (* 1 x6)) (?v_93 (* 1 x15)) (?v_52 (* 0 x2)) (?v_66 (* 0 x33)) (?v_98 (* 1 x29)) (?v_111 (* 0 x37)) (?v_68 (* 1 x31)) (?v_121 (* 1 x19)) (?v_76 (* 1 x5))) (let ((?v_131 (+ ?v_76 ?v_60)) (?v_114 (* 0 x1)) (?v_86 (* 0 x29)) (?v_88 (* 1 x20)) (?v_83 (* 0 x21)) (?v_110 (* 1 x23)) (?v_92 (* 2 x27)) (?v_74 (* 1 x35)) (?v_129 (* 1 x1)) (?v_116 (* 1 x34)) (?v_84 (* 0 x4)) (?v_137 (+ ?v_76 ?v_77)) (?v_104 (* 1 x38))) (let ((?v_115 (+ ?v_59 ?v_104)) (?v_103 (* 2 x25)) (?v_130 (+ ?v_90 ?v_76)) (?v_102 (* 1 x24)) (?v_101 (* 1 x14)) (?v_97 (* 0 x17)) (?v_118 (+ ?v_104 ?v_25)) (?v_126 (* 2 x33)) (?v_132 (* 1 x25)) (?v_136 (* 1 x16)) (?v_142 (+ ?v_75 ?v_90)) (?v_99 (* (- 1) x0)) (?v_85 (* (- 1) x12)) (?v_124 (* (- 2) x19)) (?v_7 (* (- 1) x21)) (?v_139 (* (- 2) x24)) (?v_81 (* (- 1) x32)) (?v_1 (* (- 1) x33)) (?v_72 (* (- 1) x20)) (?v_10 (* (- 1) x34)) (?v_29 (* (- 1) x4)) (?v_95 (* (- 1) x9)) (?v_125 (* (- 1) x5)) (?v_17 (* (- 1) x1)) (?v_6 (* (- 2) x20)) (?v_8 (* (- 1) x22)) (?v_9 (* (- 1) x29)) (?v_38 (* (- 1) x3)) (?v_106 (* (- 1) x36)) (?v_56 (* (- 1) x38)) (?v_21 (* (- 1) x11)) (?v_36 (* (- 1) x17)) (?v_54 (* (- 1) x30)) (?v_37 (* (- 1) x18)) (?v_140 (* (- 1) x28)) (?v_78 (* (- 1) x15)) (?v_80 (* (- 1) x25)) (?v_28 (* (- 1) x26)) (?v_87 (* (- 1) x35)) (?v_82 (* (- 1) x37)) (?v_58 (* (- 1) x6)) (?v_71 (* (- 2) x33)) (?v_100 (* (- 1) x2)) (?v_91 (* (- 1) x23)) (?v_57 (* (- 1) x39)) (?v_64 (* (- 1) x19)) (?v_112 (* (- 2) x0)) (?v_107 (* (- 1) x16)) (?v_105 (* (- 1) x13)) (?v_128 (* (- 2) x17)) (?v_120 (* (- 1) x27)) (?v_94 (* (- 1) x7)) (?v_119 (* (- 1) x24)) (?v_134 (* (- 2) x22)) (?v_113 (* (- 1) x14)) (?v_123 (* (- 2) x27)) (?v_117 (* (- 1) x31)) (?v_135 (* (- 2) x31)) (?v_109 (* (- 1) x8)) (?v_141 (* (- 2) x37)) (?v_127 (* (- 1) x10)) (?v_138 (* (- 2) x2))) (and (<= (+ ?v_99 (+ ?v_85 (+ ?v_0 (+ ?v_5 (+ ?v_79 (+ ?v_124 (+ ?v_7 (+ ?v_2 (+ ?v_139 (+ ?v_81 (+ ?v_1 (+ ?v_13 (+ ?v_72 (+ ?v_20 (+ ?v_33 (+ ?v_10 (+ ?v_29 (+ ?v_49 (+ ?v_3 (+ ?v_95 (+ ?v_67 (+ ?v_4 (+ ?v_125 ?v_15))))))))))))))))))))))) 0) (<= (+ ?v_16 (+ ?v_17 (+ ?v_27 (+ ?v_0 (+ ?v_18 (+ ?v_63 (+ ?v_6 (+ ?v_8 (+ ?v_9 (+ ?v_38 (+ ?v_1 (+ ?v_106 (+ ?v_56 (+ ?v_11 (+ ?v_22 (+ ?v_2 (+ ?v_19 (+ ?v_12 (+ ?v_73 (+ ?v_43 (+ ?v_50 (+ ?v_3 (+ ?v_14 (+ ?v_26 (+ ?v_59 (+ ?v_4 (+ ?v_89 ?v_25))))))))))))))))))))))))))) (- 1)) (<= (+ ?v_45 (+ ?v_21 (+ ?v_46 (+ ?v_5 (+ ?v_69 (+ ?v_36 (+ ?v_31 (+ ?v_6 (+ ?v_7 (+ ?v_8 (+ ?v_9 (+ ?v_54 (+ ?v_10 (+ ?v_11 (+ ?v_12 (+ ?v_47 (+ ?v_13 (+ ?v_14 (+ ?v_23 (+ ?v_75 (+ ?v_34 (+ ?v_96 (+ ?v_3 ?v_77))))))))))))))))))))))) 0) (<= (+ ?v_16 (+ ?v_17 (+ ?v_37 (+ ?v_108 (+ ?v_35 (+ ?v_18 (+ ?v_6 (+ (* (- 2) x25) (+ ?v_140 (+ ?v_9 (+ ?v_11 (+ ?v_19 (+ ?v_13 (+ ?v_20 (+ ?v_39 (+ ?v_32 (+ ?v_55 (+ ?v_24 (+ (* 2 x36) (+ ?v_3 (+ ?v_122 (* 2 x38)))))))))))))))))))))) (- 1)) (<= (+ (* (- 2) x23) (+ (* (- 2) x4) (+ ?v_17 (+ ?v_21 (+ ?v_78 (+ ?v_22 (+ ?v_80 (+ ?v_28 (+ ?v_9 (+ ?v_30 (+ ?v_11 (+ ?v_53 (+ ?v_19 (+ ?v_23 (+ ?v_24 (+ ?v_25 (+ ?v_26 (+ ?v_44 (* 2 x9))))))))))))))))))) (- 1)) (<= (+ ?v_16 (+ ?v_17 (+ ?v_27 (+ ?v_7 (+ ?v_0 (+ ?v_28 (+ ?v_87 (+ ?v_82 (+ ?v_29 (+ ?v_58 (+ ?v_30 (+ ?v_31 (+ ?v_70 (+ ?v_2 (+ ?v_20 (+ ?v_32 (+ ?v_40 (+ ?v_42 (+ ?v_4 (+ ?v_33 (+ ?v_41 (+ ?v_34 (+ ?v_90 (+ ?v_25 ?v_133)))))))))))))))))))))))) (- 1)) (<= (+ ?v_71 (+ ?v_17 (+ ?v_21 (+ ?v_61 (+ ?v_35 (+ ?v_62 (+ ?v_5 (+ ?v_36 (+ ?v_37 (+ ?v_100 (+ ?v_22 (+ ?v_91 (+ ?v_38 (+ ?v_57 (+ ?v_65 (+ ?v_12 (+ ?v_39 (+ ?v_32 (+ ?v_40 (+ ?v_41 (+ ?v_48 (+ ?v_42 (+ ?v_43 (+ ?v_51 (+ ?v_15 ?v_44))))))))))))))))))))))))) 0) (<= (+ ?v_45 (+ ?v_0 (+ ?v_46 (+ ?v_93 (+ (* (- 3) x7) (+ (* (- 2) x26) (+ ?v_17 (+ ?v_64 (+ ?v_8 (+ ?v_52 (+ (* 2 x21) (+ ?v_2 (+ ?v_19 (+ ?v_47 (+ ?v_66 (+ ?v_98 (+ ?v_41 (+ ?v_48 (+ ?v_49 (+ ?v_111 (+ ?v_50 (+ ?v_25 (+ ?v_51 ?v_44))))))))))))))))))))))) 1) (<= (+ ?v_112 (+ ?v_27 (+ ?v_107 (+ ?v_0 (+ ?v_105 (+ ?v_35 (+ ?v_36 (+ ?v_52 (+ ?v_53 (+ ?v_19 (+ ?v_12 (+ ?v_28 (+ ?v_9 (+ ?v_54 (+ ?v_68 (+ ?v_55 (+ ?v_48 (+ ?v_49 (+ ?v_42 (+ ?v_56 (+ ?v_57 (+ ?v_29 (+ ?v_58 (+ ?v_59 (+ ?v_121 ?v_131))))))))))))))))))))))))) 0) (<= (+ ?v_16 (+ ?v_128 (+ ?v_114 (+ ?v_45 (+ ?v_0 (+ ?v_61 (+ ?v_30 (+ ?v_62 (+ ?v_5 (+ ?v_63 (+ ?v_64 (+ ?v_7 (+ ?v_20 (+ ?v_65 (+ ?v_120 (+ ?v_86 (+ ?v_66 (+ ?v_50 (+ ?v_94 (+ ?v_48 (+ ?v_67 (+ ?v_68 (+ ?v_43 (+ ?v_34 (+ ?v_25 ?v_88))))))))))))))))))))))))) 1) (<= (+ (* (- 4) x18) (+ ?v_21 (+ ?v_69 (+ ?v_61 (+ (* (- 2) x14) (+ ?v_62 (+ ?v_5 (+ ?v_36 (+ ?v_64 (+ ?v_8 (+ ?v_52 (+ ?v_56 (+ ?v_58 (+ ?v_70 (+ ?v_83 (+ ?v_110 (+ ?v_19 (+ ?v_47 (+ ?v_92 (+ ?v_32 (+ ?v_68 (+ ?v_48 (+ ?v_42 (+ ?v_74 (+ ?v_25 (+ ?v_26 ?v_44)))))))))))))))))))))))))) (- 1)) (<= (+ ?v_27 (+ ?v_71 (+ ?v_0 (+ ?v_46 (+ ?v_62 (+ ?v_5 (+ ?v_31 (+ ?v_129 (+ (* 2 x13) (+ ?v_64 (+ ?v_72 (+ ?v_8 (+ ?v_119 (+ ?v_73 (+ ?v_47 (+ ?v_40 (+ ?v_55 (+ ?v_14 (+ ?v_116 (+ ?v_74 (+ ?v_75 (+ ?v_56 (+ ?v_50 (+ ?v_84 ?v_137)))))))))))))))))))))))) (- 1)) (<= (+ ?v_134 (+ ?v_21 (+ ?v_113 (+ ?v_78 (+ ?v_79 (+ ?v_64 (+ ?v_80 (+ ?v_81 (+ ?v_82 (+ ?v_52 (+ ?v_10 (+ ?v_70 (+ ?v_83 (+ ?v_2 (+ ?v_19 (+ ?v_39 (+ ?v_47 (+ ?v_40 (+ ?v_66 (+ ?v_84 (+ ?v_67 (+ ?v_75 (+ ?v_44 ?v_115))))))))))))))))))))))) 0) (<= (+ ?v_27 (+ ?v_85 (+ ?v_5 (+ (* (- 2) x7) (+ ?v_64 (+ ?v_83 (+ ?v_8 (+ (* 3 x23) (+ ?v_1 (+ ?v_19 (+ ?v_86 (+ ?v_68 (+ ?v_55 (+ ?v_87 (+ ?v_13 (+ ?v_103 (+ ?v_39 (+ ?v_48 (+ ?v_84 (+ ?v_59 (+ ?v_88 (+ ?v_67 (+ ?v_89 ?v_130))))))))))))))))))))))) 1) (<= (+ ?v_17 (+ ?v_27 (+ ?v_78 (+ ?v_46 (+ ?v_63 (+ ?v_64 (+ ?v_7 (+ ?v_91 (+ ?v_38 (+ ?v_52 (+ ?v_53 (+ ?v_40 (+ ?v_102 (+ ?v_10 (+ ?v_87 (+ ?v_82 (+ ?v_42 (+ ?v_50 (+ ?v_67 (+ ?v_92 (+ ?v_23 (+ ?v_34 (+ ?v_59 (+ ?v_88 (+ (* 2 x4) ?v_15))))))))))))))))))))))))) 0) (<= (+ ?v_16 (+ ?v_0 (+ ?v_46 (+ ?v_5 (+ ?v_93 (+ ?v_123 (+ (* (- 2) x39) (+ ?v_101 (+ ?v_97 (+ ?v_64 (+ ?v_52 (+ ?v_72 (+ ?v_83 (+ ?v_20 (+ ?v_81 (+ ?v_19 (+ ?v_40 (+ ?v_10 (+ ?v_58 (+ ?v_94 (+ ?v_95 (+ ?v_67 (+ ?v_23 (+ ?v_24 (+ ?v_34 (+ ?v_96 (+ ?v_25 ?v_44))))))))))))))))))))))))))) 0) (<= (+ ?v_45 (+ ?v_0 (+ ?v_5 (+ ?v_97 (+ ?v_31 (+ ?v_72 (+ ?v_28 (+ ?v_117 (+ ?v_11 (+ ?v_52 (+ ?v_22 (+ ?v_2 (+ ?v_20 (+ ?v_19 (+ ?v_14 (+ ?v_98 (+ ?v_33 (+ ?v_89 (+ ?v_24 (+ ?v_48 (+ ?v_42 (+ ?v_84 (+ ?v_43 (+ ?v_90 (+ ?v_3 (+ ?v_26 (+ ?v_44 ?v_59))))))))))))))))))))))))))) (- 1)) (<= (+ ?v_135 (+ ?v_99 (+ ?v_17 (+ ?v_45 (+ ?v_46 (+ ?v_62 (+ ?v_31 (+ ?v_100 (+ ?v_101 (+ ?v_18 (+ ?v_72 (+ ?v_54 (+ ?v_81 (+ ?v_29 (+ ?v_11 (+ ?v_102 (+ ?v_103 (+ ?v_39 (+ ?v_23 (+ ?v_86 (+ ?v_47 (+ ?v_48 (+ ?v_42 (+ ?v_50 (+ ?v_3 (+ ?v_26 (+ ?v_104 (* 2 x5)))))))))))))))))))))))))))) 0) (<= (+ ?v_45 (+ ?v_105 (+ ?v_5 (+ ?v_37 (+ ?v_101 (+ ?v_93 (+ ?v_36 (+ ?v_72 (+ ?v_8 (+ ?v_28 (+ ?v_33 (+ ?v_66 (+ ?v_68 (+ ?v_55 (+ ?v_106 (+ ?v_29 (+ ?v_50 (+ ?v_89 (+ (* 2 x6) (+ ?v_109 (+ ?v_95 (+ ?v_11 ?v_118)))))))))))))))))))))) (- 1)) (<= (+ ?v_99 (+ ?v_17 (+ ?v_45 (+ ?v_107 (+ ?v_62 (+ ?v_108 (+ ?v_101 (+ ?v_36 (+ ?v_100 (+ ?v_79 (+ ?v_63 (+ ?v_72 (+ ?v_1 (+ ?v_87 (+ ?v_56 (+ ?v_109 (+ ?v_11 (+ ?v_83 (+ ?v_19 (+ ?v_47 (+ ?v_40 (+ ?v_48 (+ ?v_3 (+ ?v_26 (+ ?v_67 (+ ?v_98 (+ ?v_92 (+ ?v_89 (+ (* 2 x28) ?v_25))))))))))))))))))))))))))))) 1) (<= (+ (* (- 3) x0) (+ ?v_107 (+ ?v_0 (+ ?v_62 (+ ?v_36 (+ ?v_52 (+ ?v_110 (+ ?v_12 (+ ?v_28 (+ ?v_54 (+ ?v_23 (+ ?v_55 (+ ?v_66 (+ ?v_49 (+ ?v_111 (+ ?v_56 (+ ?v_50 (+ ?v_84 (+ ?v_58 (+ ?v_94 (+ ?v_59 ?v_76))))))))))))))))))))) 0) (<= (+ ?v_112 (+ ?v_21 (+ ?v_105 (+ ?v_113 (+ ?v_100 (+ ?v_91 (+ ?v_114 (+ ?v_27 (+ ?v_46 (+ ?v_62 (+ ?v_5 (+ ?v_97 (+ ?v_11 (+ ?v_20 (+ ?v_19 (+ ?v_67 (+ ?v_23 (+ ?v_32 (+ ?v_40 (+ ?v_48 (+ ?v_49 (+ ?v_42 (+ ?v_43 (+ ?v_90 (+ ?v_96 (+ ?v_3 (+ ?v_15 ?v_115))))))))))))))))))))))))))) (- 1)) (<= (+ ?v_27 (+ (* (- 3) x3) (+ ?v_21 (+ ?v_105 (+ ?v_78 (+ ?v_5 (+ ?v_9 (+ ?v_56 (+ ?v_57 (+ ?v_94 (+ ?v_114 (+ ?v_61 (+ ?v_97 (+ ?v_70 (+ ?v_53 (+ ?v_110 (+ ?v_19 (+ ?v_67 (+ ?v_23 (+ ?v_32 (+ ?v_68 (+ ?v_55 (+ ?v_126 (+ ?v_116 (+ ?v_43 (+ ?v_96 ?v_76)))))))))))))))))))))))))) 1) (<= (+ ?v_27 (+ ?v_78 (+ ?v_100 (+ ?v_117 (+ ?v_82 (+ ?v_94 (+ ?v_95 (+ ?v_114 (+ ?v_30 (+ ?v_35 (+ ?v_97 (+ ?v_31 (+ ?v_70 (+ ?v_20 (+ ?v_19 (+ ?v_132 (+ ?v_73 (+ ?v_47 (+ ?v_41 (+ ?v_24 (+ ?v_49 (+ ?v_42 (+ ?v_84 (+ ?v_89 (+ ?v_116 (+ ?v_44 ?v_118)))))))))))))))))))))))))) 0) (<= (+ ?v_16 (+ ?v_113 (+ ?v_37 (+ ?v_119 (+ ?v_120 (+ ?v_117 (+ ?v_10 (+ ?v_106 (+ ?v_114 (+ ?v_62 (+ ?v_52 (+ ?v_22 (+ ?v_20 (+ ?v_110 (+ ?v_12 (+ ?v_98 (+ ?v_32 (+ ?v_111 (+ ?v_41 (+ ?v_49 (+ ?v_34 (+ ?v_50 (+ ?v_26 (+ ?v_121 (+ ?v_51 ?v_122))))))))))))))))))))))))) 1) (<= (+ ?v_21 (+ ?v_107 (+ ?v_16 (+ ?v_123 (+ ?v_141 (+ ?v_87 (+ ?v_109 (+ ?v_114 (+ ?v_27 (+ ?v_46 (+ ?v_35 (+ ?v_62 (+ ?v_97 (+ ?v_110 (+ ?v_12 (+ ?v_23 (+ ?v_47 (+ ?v_66 (+ ?v_84 (+ ?v_3 (+ ?v_59 (+ ?v_79 (+ ?v_88 (+ ?v_89 ?v_90)))))))))))))))))))))))) (- 1)) (<= (+ ?v_27 (+ ?v_21 (+ ?v_81 (+ ?v_57 (+ ?v_69 (+ ?v_114 (+ ?v_30 (+ ?v_5 (+ ?v_31 (+ ?v_124 (+ ?v_52 (+ ?v_83 (+ ?v_53 (+ ?v_2 (+ ?v_12 (+ ?v_14 (+ ?v_33 (+ ?v_32 (+ ?v_40 (+ ?v_84 (+ ?v_24 (+ ?v_48 (+ ?v_75 (+ ?v_26 ?v_118)))))))))))))))))))))))) 1) (<= (+ ?v_127 (+ ?v_0 (+ ?v_46 (+ ?v_36 (+ ?v_8 (+ ?v_1 (+ ?v_57 (+ ?v_95 (+ ?v_114 (+ ?v_30 (+ ?v_35 (+ ?v_62 (+ ?v_64 (+ ?v_110 (+ ?v_19 (+ ?v_12 (+ ?v_73 (+ ?v_39 (+ ?v_86 (+ ?v_32 (+ ?v_40 (+ ?v_55 (+ ?v_48 (+ ?v_49 (+ ?v_104 (+ ?v_51 ?v_15)))))))))))))))))))))))))) 0) (<= (+ ?v_69 (+ (* (- 2) x30) (+ ?v_114 (+ (* 2 x11) (+ ?v_35 (+ ?v_136 (+ ?v_31 (+ ?v_18 (+ ?v_64 (+ ?v_83 (+ ?v_53 (+ ?v_12 (+ ?v_86 (+ ?v_47 (+ ?v_40 (+ ?v_42 (+ ?v_13 (+ ?v_110 (+ ?v_48 (+ ?v_43 (+ ?v_56 (+ ?v_50 (+ ?v_26 (+ ?v_95 ?v_44)))))))))))))))))))))))) 0) (<= (+ ?v_99 (+ ?v_7 (+ ?v_46 (+ ?v_93 (+ ?v_37 (+ ?v_80 (+ ?v_1 (+ ?v_10 (+ ?v_87 (+ ?v_125 (+ ?v_94 (+ ?v_30 (+ ?v_35 (+ ?v_97 (+ ?v_52 (+ ?v_70 (+ ?v_20 (+ ?v_102 (+ ?v_39 (+ ?v_40 (+ ?v_55 (+ ?v_42 (+ ?v_67 (+ ?v_89 (+ ?v_34 ?v_90))))))))))))))))))))))))) 0) (<= (+ ?v_46 (+ ?v_30 (+ ?v_35 (+ ?v_62 (+ ?v_5 (+ ?v_97 (+ ?v_63 (+ ?v_124 (+ ?v_83 (+ ?v_53 (+ (* 2 x23) (+ ?v_19 (+ ?v_28 (+ ?v_86 (+ ?v_54 (+ ?v_117 (+ ?v_59 (+ ?v_4 (+ ?v_41 (+ ?v_126 (+ ?v_75 (+ ?v_43 (+ (* 2 x35) ?v_60))))))))))))))))))))))) 0) (<= (+ ?v_127 (+ ?v_85 (+ ?v_78 (+ ?v_0 (+ ?v_5 (+ ?v_119 (+ ?v_117 (+ ?v_10 (+ ?v_87 (+ ?v_82 (+ ?v_58 (+ ?v_30 (+ ?v_35 (+ ?v_11 (+ ?v_70 (+ ?v_2 (+ ?v_20 (+ ?v_86 (+ ?v_47 (+ ?v_42 (+ ?v_67 (+ ?v_4 (+ ?v_34 (+ ?v_96 (+ ?v_76 ?v_122))))))))))))))))))))))))) 0) (<= (+ ?v_21 (+ ?v_16 (+ ?v_128 (+ ?v_105 (+ ?v_113 (+ ?v_119 (+ ?v_41 (+ ?v_87 (+ ?v_106 (+ ?v_58 (+ ?v_52 (+ ?v_12 (+ ?v_109 (+ ?v_129 (+ ?v_11 (+ ?v_39 (+ ?v_23 (+ ?v_32 (+ ?v_34 (+ ?v_26 (+ ?v_59 (+ ?v_88 (+ ?v_67 (+ ?v_116 ?v_130)))))))))))))))))))))))) 1) (<= (+ ?v_21 (+ ?v_85 (+ ?v_16 (+ ?v_52 (+ ?v_120 (+ ?v_47 (+ ?v_117 (+ ?v_55 (+ ?v_87 (+ ?v_29 (+ ?v_94 (+ ?v_18 (+ ?v_11 (+ ?v_48 (+ ?v_34 (+ ?v_88 (+ ?v_20 (+ ?v_4 (+ (* 2 x29) (+ (* 2 x30) (+ ?v_126 ?v_131))))))))))))))))))))) 0) (<= (+ ?v_27 (+ ?v_85 (+ ?v_62 (+ ?v_5 (+ ?v_31 (+ ?v_100 (+ ?v_7 (+ ?v_119 (+ ?v_38 (+ ?v_82 (+ ?v_69 (+ ?v_10 (+ (* (- 2) x38) (+ ?v_109 (+ ?v_114 (+ ?v_35 (+ ?v_79 (+ ?v_18 (+ ?v_70 (+ ?v_12 (+ ?v_73 (+ ?v_39 (+ ?v_23 (+ ?v_86 (+ ?v_66 (+ ?v_49 (+ ?v_84 (+ ?v_90 (+ ?v_3 ?v_121))))))))))))))))))))))))))))) 0) (<= (+ ?v_127 (+ ?v_8 (+ ?v_91 (+ ?v_46 (+ ?v_81 (+ ?v_35 (+ ?v_62 (+ ?v_63 (+ ?v_56 (+ ?v_70 (+ ?v_86 (+ ?v_47 (+ ?v_32 (+ ?v_48 (+ ?v_111 (+ ?v_44 (+ ?v_121 (+ ?v_22 (+ ?v_132 (+ ?v_68 (+ ?v_96 (+ (* 2 x26) (+ ?v_76 (+ ?v_51 (+ ?v_133 ?v_122))))))))))))))))))))))))) 0) (<= (+ ?v_134 (+ ?v_135 (+ ?v_16 (+ ?v_17 (+ ?v_45 (+ ?v_21 (+ ?v_78 (+ ?v_7 (+ ?v_38 (+ ?v_136 (+ ?v_31 (+ ?v_10 (+ ?v_58 (+ ?v_79 (+ ?v_70 (+ ?v_12 (+ ?v_23 (+ ?v_86 (+ ?v_42 (+ ?v_111 (+ ?v_84 (+ ?v_121 (+ ?v_104 ?v_76))))))))))))))))))))))) 1) (<= (+ (* 2 x0) (+ ?v_17 (+ ?v_62 (+ ?v_37 (+ ?v_8 (+ ?v_91 (+ ?v_0 (+ ?v_120 (+ ?v_38 (+ ?v_54 (+ ?v_117 (+ ?v_82 (+ ?v_70 (+ ?v_19 (+ ?v_48 (+ ?v_49 (+ ?v_84 (+ ?v_121 (+ ?v_67 (+ ?v_4 (+ ?v_126 (+ ?v_90 (+ ?v_76 (+ ?v_51 ?v_60)))))))))))))))))))))))) (- 1)) (<= (+ ?v_21 (+ ?v_37 (+ (* (- 3) x36) (+ ?v_138 (+ ?v_16 (+ ?v_17 (+ ?v_61 (+ ?v_35 (+ ?v_97 (+ ?v_28 (+ ?v_58 (+ ?v_95 (+ ?v_70 (+ ?v_53 (+ ?v_110 (+ ?v_103 (+ ?v_23 (+ ?v_33 (+ ?v_32 (+ ?v_41 (+ ?v_24 (+ ?v_34 (+ ?v_84 ?v_121))))))))))))))))))))))) (- 1)) (<= (+ ?v_127 (+ ?v_107 (+ ?v_62 (+ ?v_135 (+ (* (- 2) x6) (+ ?v_35 (+ ?v_97 (+ ?v_63 (+ ?v_52 (+ ?v_10 (+ ?v_87 (+ ?v_129 (+ ?v_70 (+ ?v_22 (+ ?v_132 (+ ?v_73 (+ ?v_55 (+ ?v_14 (+ ?v_23 (+ ?v_43 (+ ?v_34 (+ ?v_84 (+ ?v_90 ?v_137))))))))))))))))))))))) 0) (<= (+ ?v_21 (+ ?v_85 (+ ?v_78 (+ ?v_138 (+ ?v_16 (+ ?v_27 (+ ?v_30 (+ ?v_5 (+ ?v_97 (+ ?v_53 (+ ?v_63 (+ ?v_102 (+ ?v_132 (+ ?v_98 (+ ?v_32 (+ ?v_40 (+ ?v_41 (+ ?v_24 (+ ?v_75 (+ ?v_43 (+ ?v_34 (+ ?v_59 (+ ?v_129 (+ ?v_70 (+ ?v_96 (+ ?v_92 ?v_60)))))))))))))))))))))))))) (- 1)) (<= (+ ?v_139 (+ ?v_99 (+ ?v_0 (+ ?v_105 (+ ?v_5 (+ ?v_31 (+ ?v_53 (+ ?v_81 (+ ?v_58 (+ ?v_73 (+ ?v_86 (+ ?v_47 (+ ?v_32 (+ ?v_40 (+ ?v_49 (+ ?v_25 (+ ?v_59 (+ ?v_129 (+ ?v_121 (+ ?v_110 (+ ?v_132 (+ ?v_14 (+ ?v_4 (+ ?v_116 (+ ?v_104 ?v_96))))))))))))))))))))))))) 1) (<= (+ ?v_127 (+ ?v_21 (+ ?v_78 (+ ?v_8 (+ ?v_31 (+ ?v_2 (+ ?v_120 (+ ?v_140 (+ ?v_82 (+ ?v_40 (+ ?v_125 (+ ?v_26 (+ ?v_44 (+ ?v_129 (+ (* 2 x12) (+ ?v_79 (+ ?v_13 (+ ?v_132 (+ ?v_98 (+ ?v_41 (+ ?v_24 ?v_142))))))))))))))))))))) 1) (<= (+ (* (- 2) x15) (+ ?v_141 (+ ?v_87 (+ ?v_109 (+ ?v_114 (+ ?v_45 (+ ?v_0 (+ ?v_46 (+ ?v_136 (+ ?v_31 (+ ?v_22 (+ ?v_20 (+ ?v_19 (+ ?v_12 (+ ?v_13 (+ ?v_23 (+ ?v_32 (+ ?v_48 (+ ?v_26 (+ ?v_121 (+ ?v_88 (+ ?v_68 ?v_142)))))))))))))))))))))) 0) (<= (+ (* (- 2) x1) (+ ?v_27 (+ ?v_85 (+ ?v_5 (+ ?v_108 (+ ?v_35 (+ ?v_93 (+ ?v_36 (+ ?v_22 (+ ?v_117 (+ ?v_82 (+ ?v_13 (+ ?v_102 (+ ?v_132 (+ ?v_73 (+ ?v_33 (+ ?v_55 (+ ?v_49 (+ ?v_42 (+ ?v_14 (+ ?v_56 (+ ?v_57 (+ ?v_84 (+ ?v_109 (+ ?v_25 (+ ?v_59 (+ ?v_121 (+ ?v_88 (+ ?v_116 ?v_51))))))))))))))))))))))))))))) (- 1))))))))
(check-sat)
(exit)
